
******************************************************************************
This program contains Ipopt, a library for large-scale nonlinear optimization.
 Ipopt is released as open source code under the Eclipse Public License (EPL).
         For more information visit http://projects.coin-or.org/Ipopt
******************************************************************************

This is Ipopt version 3.12.6, running with linear solver ma57.

Number of nonzeros in equality constraint Jacobian...:        0
Number of nonzeros in inequality constraint Jacobian.:        2
Number of nonzeros in Lagrangian Hessian.............:        3

Total number of variables............................:        2
                     variables with only lower bounds:        0
                variables with lower and upper bounds:        0
                     variables with only upper bounds:        0
Total number of equality constraints.................:        0
Total number of inequality constraints...............:        1
        inequality constraints with only lower bounds:        1
   inequality constraints with lower and upper bounds:        0
        inequality constraints with only upper bounds:        0

iter    objective    inf_pr   inf_du lg(mu)  ||d||  lg(rg) alpha_du alpha_pr  ls
   0 -2.0000000e+01 5.99e+02 9.85e-01  -1.0 0.00e+00    -  0.00e+00 0.00e+00   0
   1 -2.1035499e+01 5.14e+02 5.64e-01  -1.0 1.70e+01    -  1.00e+00 1.00e+00h  1
   2 -1.3354942e+01 1.86e+02 1.43e-01  -1.0 1.58e+01    -  1.00e+00 1.00e+00h  1
   3 -7.4027052e+00 5.69e+01 4.88e-01  -1.0 3.45e+00    -  1.00e+00 1.00e+00h  1
   4 -4.1814882e+00 1.81e+01 2.46e-01  -1.0 5.37e+00    -  1.00e+00 1.00e+00h  1
   5 -2.6674164e+00 6.90e+00 5.69e-01  -1.0 1.54e+00    -  1.00e+00 1.00e+00h  1
   6 -1.7279974e+00 2.25e+00 1.85e-01  -1.0 1.93e+00    -  1.00e+00 1.00e+00h  1
   7 -1.2636455e+00 6.56e-01 3.48e-01  -1.0 5.37e-01    -  1.00e+00 1.00e+00h  1
   8 -1.0565848e+00 1.21e-01 4.62e-02  -1.7 4.27e-01    -  1.00e+00 1.00e+00h  1
   9 -1.0019949e+00 4.04e-03 1.38e-02  -2.5 5.27e-02    -  1.00e+00 1.00e+00h  1
iter    objective    inf_pr   inf_du lg(mu)  ||d||  lg(rg) alpha_du alpha_pr  ls
  10 -9.9988724e-01 0.00e+00 4.79e-05  -3.8 6.70e-03    -  1.00e+00 1.00e+00h  1
  11 -9.9999815e-01 0.00e+00 1.07e-08  -5.7 2.68e-04    -  1.00e+00 1.00e+00h  1
  12 -1.0000000e+00 0.00e+00 3.40e-12  -8.6 3.71e-06    -  1.00e+00 1.00e+00h  1

Number of Iterations....: 12

                                   (scaled)                 (unscaled)
Objective...............:  -1.0000000024923952e+00   -1.0000000024923952e+00
Dual infeasibility......:   3.3962832546308164e-12    3.3962832546308164e-12
Constraint violation....:   0.0000000000000000e+00    0.0000000000000000e+00
Complementarity.........:   2.5093129699006578e-09    2.5093129699006578e-09
Overall NLP error.......:   2.5093129699006578e-09    2.5093129699006578e-09


Number of objective function evaluations             = 13
Number of objective gradient evaluations             = 13
Number of equality constraint evaluations            = 0
Number of inequality constraint evaluations          = 13
Number of equality constraint Jacobian evaluations   = 0
Number of inequality constraint Jacobian evaluations = 13
Number of Lagrangian Hessian evaluations             = 12
Total CPU secs in IPOPT (w/o function evaluations)   =      0.007
Total CPU secs in NLP function evaluations           =      0.000

EXIT: Optimal Solution Found.

************************ CUTEst statistics ************************


 Package used            :  IPOPT
 Problem                 :  HS10      
 # variables             =               2
 # constraints           =               1
 # objective functions   =        0.2700000E+02
 # objective gradients   =        0.1400000E+02
 # objective Hessians    =        0.1300000E+02
 # Hessian-vector prdct  =        0.0000000E+00
 # constraints functions =        0.2800000E+02
 # constraints gradients =        0.1500000E+02
 # constraints Hessians  =        0.1300000E+02
 Exit code               =               0
 Final f                 =  -0.1000000E+01
 Set up time             =            0.00 seconds
 Solve time              =            0.02 seconds


******************************************************************

System Time =       0.0040000002 s.
